20 5
 0 27  1 79  2 22  3 93  4 38 
 0 92  1 23  2 93  3 22  4 84 
 0 75  1 66  2 62  3 64  4 62 
 0 94  1  5  2 53  3 81  4 10 
 0 18  1 15  2 30  3 94  4 11 
 0 41  1 51  2 34  3 97  4 93 
 0 37  1  2  2 27  3 54  4 57 
 0 58  1 81  2 30  3 82  4 81 
 0 56  1 12  2 54  3 11  4 10 
 0 20  1 40  2 77  3 91  4 40 
 0  2  1 59  2 24  3 23  4 62 
 0 39  1 32  2 47  3 32  4 49 
 0 91  1 16  2 39  3 26  4 90 
 0 81  1 87  2 66  3 22  4 34 
 0 33  1 78  2 41  3 12  4 11 
 0 14  1 41  2 46  3 23  4 81 
 0 88  1 43  2 24  3 34  4 51 
 0 22  1 94  2 23  3 87  4 21 
 0 36  1  1  2 68  3 59  4 39 
 0 65  1 93  2 50  3  2  4 27 
